/*********************************************
 * OPL 22.1.1.0 Data
 * Author: naeem
 * Creation Date: Nov 28, 2023 at 2:33:28 AM
 *********************************************/
c = [[0, 10, 15, 20],
     [10, 0, 35, 25],
     [15, 35, 0, 30],
     [20, 25, 30, 0]];

t = [[0, 5, 10, 15],
     [5, 0, 20, 25],
     [10, 20, 0, 30],
     [15, 25, 30, 0]];

p = [10, 20, 30];
w = [2, 3, 4];
d = [40, 100, 160];
F = 50;
Q = [2, 2]; 
M = 1000;   
 